(set-info :source  loris-7.ddns.comp.nus.edu.sg/~project/hip/) 
;Variables declarations
(declare-fun l_2125 () Int)
(declare-fun nmin_2151 () Int)
(declare-fun n_2150 () Int)
(declare-fun nmin_2133 () Int)
(declare-fun n_2132 () Int)
(declare-fun flted_26_2123 () Int)
(declare-fun n () Int)
(declare-fun nmin () Int)
(declare-fun nmin1_2126 () Int)
(declare-fun nmin2_2128 () Int)
(declare-fun flted_26_2122 () Int)
(declare-fun n_2216 () Int)
(declare-fun nmin_2217 () Int)
(declare-fun aux_primed () Int)
(declare-fun n_2234 () Int)
(declare-fun nmin_2235 () Int)
(declare-fun r_2127 () Int)
;Relations declarations
;Axioms assertions
;Antecedent
(assert (<= n_2150 nmin_2133))
(assert (or (and (and (<= 1 nmin_2151) (<= nmin_2151 n_2150)) (> l_2125 0)) (or (and (and (< l_2125 1) (= n_2150 0)) (= nmin_2151 0)) (and (and (<= 1 nmin_2151) (< nmin_2151 n_2150)) (> l_2125 0)))))
(assert (<= nmin_2151 n_2150))
(assert (<= 0 nmin_2151))
(assert (<= nmin_2133 n_2132))
(assert (<= 0 nmin_2133))
(assert (= nmin_2151 nmin_2133))
(assert (= n_2150 n_2132))
(assert (<= nmin1_2126 flted_26_2123))
(assert (<= 0 nmin1_2126))
(assert (= nmin_2133 nmin1_2126))
(assert (= n_2132 flted_26_2123))
(assert (< nmin n))
(assert (= (+ flted_26_2123 1) n))
(assert (= (+ flted_26_2122 1) n))
(assert (exists ((min_2281 Int)) (and (= nmin (+ 1 min_2281)) (or (and (= min_2281 nmin1_2126) (< nmin1_2126 nmin2_2128)) (and (= min_2281 nmin2_2128) (>= nmin1_2126 nmin2_2128))))))
(assert (<= nmin_2217 n_2216))
(assert (<= 0 nmin_2217))
(assert (<= nmin2_2128 flted_26_2122))
(assert (<= 0 nmin2_2128))
(assert (= nmin_2217 nmin2_2128))
(assert (= n_2216 flted_26_2122))
(assert (< nmin_2217 n_2234))
(assert (= n_2234 n_2216))
(assert (= nmin_2235 nmin_2217))
(assert (<= 0 nmin_2235))
(assert (<= nmin_2235 n_2234))
(assert (= aux_primed r_2127))
(assert (or (and (and (<= 1 nmin_2235) (<= nmin_2235 n_2234)) (> r_2127 0)) (or (and (and (< r_2127 1) (= n_2234 0)) (= nmin_2235 0)) (and (and (<= 1 nmin_2235) (< nmin_2235 n_2234)) (> r_2127 0)))))
;Negation of Consequence
(assert (not (or (= n_2234 0) (or (= nmin_2235 0) (< r_2127 1)))))
(check-sat)